
Gurobi 11.0.1 (win64) logging started Thu May 16 19:38:20 2024

Set parameter LogFile to value "output/solver_log49.txt"
Gurobi Optimizer version 11.0.1 build v11.0.1rc0 (win64 - Windows 11.0 (22631.2))

CPU model: 11th Gen Intel(R) Core(TM) i7-1165G7 @ 2.80GHz, instruction set [SSE2|AVX|AVX2|AVX512]
Thread count: 4 physical cores, 8 logical processors, using up to 8 threads

Optimize a model with 7188 rows, 2003 columns and 140116 nonzeros
Model fingerprint: 0xa161c3dd
Variable types: 568 continuous, 1435 integer (1435 binary)
Coefficient statistics:
  Matrix range     [4e-01, 1e+05]
  Objective range  [1e+00, 1e+02]
  Bounds range     [1e+00, 1e+00]
  RHS range        [1e-02, 1e+05]

User MIP start produced solution with objective 97647.2 (0.01s)
User MIP start produced solution with objective 97647.2 (0.02s)
Loaded user MIP start with objective 97647.2

Presolve removed 1325 rows and 734 columns
Presolve time: 0.16s
Presolved: 5863 rows, 1269 columns, 113839 nonzeros
Variable types: 524 continuous, 745 integer (740 binary)

Root relaxation: objective 1.039665e+05, 2345 iterations, 0.14 seconds (0.27 work units)

    Nodes    |    Current Node    |     Objective Bounds      |     Work
 Expl Unexpl |  Obj  Depth IntInf | Incumbent    BestBd   Gap | It/Node Time

     0     0 103966.508    0   57 97647.1652 103966.508  6.47%     -    0s
     0     0 101928.189    0   89 97647.1652 101928.189  4.38%     -    0s
     0     0 101795.048    0   83 97647.1652 101795.048  4.25%     -    0s
     0     0 101795.048    0   83 97647.1652 101795.048  4.25%     -    0s
     0     0 101171.665    0   89 97647.1652 101171.665  3.61%     -    1s
     0     0 100868.480    0   89 97647.1652 100868.480  3.30%     -    1s
     0     0 100868.480    0   81 97647.1652 100868.480  3.30%     -    1s
     0     0 100868.480    0   82 97647.1652 100868.480  3.30%     -    1s
     0     0 100820.022    0   60 97647.1652 100820.022  3.25%     -    1s
     0     0 100759.103    0   65 97647.1652 100759.103  3.19%     -    2s
     0     0 100759.103    0   79 97647.1652 100759.103  3.19%     -    2s
     0     0 100759.103    0   82 97647.1652 100759.103  3.19%     -    2s
     0     0 100356.110    0   53 97647.1652 100356.110  2.77%     -    2s
     0     0 100356.110    0   62 97647.1652 100356.110  2.77%     -    2s
     0     0 100356.110    0   64 97647.1652 100356.110  2.77%     -    2s
     0     0 100356.110    0  118 97647.1652 100356.110  2.77%     -    2s
     0     0 100356.110    0   59 97647.1652 100356.110  2.77%     -    2s
     0     0 100356.110    0   59 97647.1652 100356.110  2.77%     -    3s
     0     0 100356.110    0   61 97647.1652 100356.110  2.77%     -    3s
     0     0 100356.110    0   64 97647.1652 100356.110  2.77%     -    3s
     0     0 100356.110    0   67 97647.1652 100356.110  2.77%     -    3s
     0     0 100356.110    0   82 97647.1652 100356.110  2.77%     -    3s
     0     0 100356.110    0   82 97647.1652 100356.110  2.77%     -    3s
     0     0 100356.110    0   81 97647.1652 100356.110  2.77%     -    3s
     0     0 100356.110    0   98 97647.1652 100356.110  2.77%     -    3s
     0     0 100356.110    0   79 97647.1652 100356.110  2.77%     -    3s
     0     0 100356.110    0   70 97647.1652 100356.110  2.77%     -    3s
     0     0 100356.110    0   87 97647.1652 100356.110  2.77%     -    3s
     0     0 100356.110    0   77 97647.1652 100356.110  2.77%     -    3s
     0     0 100356.110    0   90 97647.1652 100356.110  2.77%     -    4s
     0     0 100356.110    0   90 97647.1652 100356.110  2.77%     -    4s
     0     0 100356.110    0   86 97647.1652 100356.110  2.77%     -    4s
     0     0 100356.110    0   90 97647.1652 100356.110  2.77%     -    4s
     0     0 100356.110    0   84 97647.1652 100356.110  2.77%     -    4s
     0     0 100356.110    0   88 97647.1652 100356.110  2.77%     -    4s
     0     0 100356.110    0   64 97647.1652 100356.110  2.77%     -    4s
     0     0 100356.110    0   64 97647.1652 100356.110  2.77%     -    4s
     0     0 100356.110    0   52 97647.1652 100356.110  2.77%     -    5s
     0     0 100356.110    0   57 97647.1652 100356.110  2.77%     -    5s
     0     0 100356.110    0   52 97647.1652 100356.110  2.77%     -    5s
     0     0 100356.110    0   56 97647.1652 100356.110  2.77%     -    5s
     0     0 100356.110    0   62 97647.1652 100356.110  2.77%     -    5s
     0     0 100356.110    0   62 97647.1652 100356.110  2.77%     -    5s
     0     2 100356.110    0   62 97647.1652 100356.110  2.77%     -    6s
   128    66 infeasible   27      97647.1652 100351.826  2.77%   130   10s
   640   228     cutoff   22      97647.1652 100296.464  2.71%  78.4   15s
   778   300 99743.4533   30  103 97647.1652 100281.864  2.70%  85.3   20s
  1562   557 99992.2804   17  105 97647.1652 100221.474  2.64%  90.6   25s
  2128   700 99568.3832   28   62 97647.1652 100217.893  2.63%  92.0   30s
  2137   706 99075.9688   17   62 97647.1652 100217.893  2.63%  91.6   35s
  2147   716 100217.893   14   94 97647.1652 100217.893  2.63%  96.6   40s
  2233   760 99527.9105   26   74 97647.1652 100217.893  2.63%   105   45s
  2329   799 98923.1026   37  107 97647.1652 100217.893  2.63%   107   50s
  2498   824 100159.373   23   70 97647.1652 100217.893  2.63%   111   55s
  2969   811 98105.7732   77   80 97647.1652 100217.893  2.63%   107   60s

Cutting planes:
  Implied bound: 2
  Projected implied bound: 1
  MIR: 12
  Flow cover: 10
  Relax-and-lift: 8

Explored 2972 nodes (334024 simplex iterations) in 60.02 seconds (110.74 work units)
Thread count was 8 (of 8 available processors)

Solution count 2: 97647.2 97647.2 

Time limit reached
Best objective 9.764716517013e+04, best bound 1.002178927134e+05, gap 2.6327%
